============================[ Problem Statistics ]=============================|                                                                             ||  Number of variables:          4242                                         ||  Number of clauses:           10377                                         ||  Parse time:                   0.76 s                                       ||                                                                             |============================[ Search Statistics ]==============================| Conflicts |          ORIGINAL         |          LEARNT          | Progress ||           |    Vars  Clauses Literals |    Limit  Clauses Lit/Cl |          |===============================================================================|       100 |    1591     6582  1219363 |     2413      100     53 | 62.501 % ||       250 |    1591     6582  1219363 |     2654      250     75 | 62.495 % |===============================================================================restarts              : 4conflicts             : 413            (359 /sec)decisions             : 772            (0.00 % random) (671 /sec)propagations          : 13669          (11886 /sec)conflict literals     : 34469          (94.52 % deleted)CPU time              : 1.15 sSATISFIABLE